(set-logic QF_S)
(declare-fun var_0xINPUT_244234 () String)
(assert (and (not (= var_0xINPUT_244234 "YY8CBEMy6Q")) (= (len var_0xINPUT_244234) 0) (not (= var_0xINPUT_244234 "Example:")) (not (= var_0xINPUT_244234 "YY8CBEMy6Q"))))
(check-sat var_0xINPUT_244234)